;symbolic execution tree
(push)
(assert (le x15 siena.AttributeConstraint))
(check-sat)
(push)
(assert (le x6 siena.Tokenizer))
(check-sat)
(push)
(assert (le x13 java.lang.String))
(check-sat)
(pop)
(push)
(assert (not (le x13 java.lang.String)))
(check-sat)
(push)
(assert (le x15 siena.AttributeConstraint))
(check-sat)
(pop)
(push)
(assert (not (le x15 siena.AttributeConstraint)))
(check-sat)
(pop)
(push)
(assert (le x7 java.lang.Long))
(check-sat)
(pop)
(push)
(assert (not (le x7 java.lang.Long)))
(check-sat)
(pop)
(pop)
(push)
(assert (le x4 siena.Tokenizer))
(check-sat)
(push)
(assert (le x9 siena.Poset))
(check-sat)
(pop)
(push)
(assert (not (le x9 siena.Poset)))
(check-sat)
(pop)
(pop)
(push)
(assert (not (le x4 siena.Tokenizer)))
(check-sat)
(push)
(assert (le x6 siena.Tokenizer))
(check-sat)
(pop)
(push)
(assert (not (le x6 siena.Tokenizer)))
(check-sat)
(pop)
(pop)
(pop)
(push)
(assert (not (le x6 siena.Tokenizer)))
(check-sat)
(push)
(assert (le x0 java.io.BufferedReader))
(check-sat)
(push)
(assert (le x4 java.lang.String))
(check-sat)
(pop)
(push)
(assert (not (le x4 java.lang.String)))
(check-sat)
(pop)
(push)
(assert (le x15 siena.AttributeConstraint))
(check-sat)
(push)
(assert (le x4 siena.Tokenizer))
(check-sat)
(pop)
(push)
(assert (not (le x4 siena.Tokenizer)))
(check-sat)
(pop)
(pop)
(push)
(assert (not (le x15 siena.AttributeConstraint)))
(check-sat)
(pop)
(pop)
(push)
(assert (not (le x0 java.io.BufferedReader)))
(check-sat)
(push)
(assert (le x6 siena.Tokenizer))
(check-sat)
(pop)
(push)
(assert (not (le x6 siena.Tokenizer)))
(check-sat)
(pop)
(push)
(assert (le x4 java.util.Set))
(check-sat)
(pop)
(push)
(assert (not (le x4 java.util.Set)))
(check-sat)
(push)
(assert (le x11 java.lang.String))
(check-sat)
(pop)
(push)
(assert (not (le x11 java.lang.String)))
(check-sat)
(pop)
(pop)
(pop)
(push)
(assert (le x14 java.lang.String))
(check-sat)
(pop)
(push)
(assert (not (le x14 java.lang.String)))
(check-sat)
(pop)
(push)
(assert (le x15 siena.AttributeConstraint))
(check-sat)
(push)
(assert (le x13 siena.Event))
(check-sat)
(push)
(assert (le x3 java.lang.String))
(check-sat)
(pop)
(push)
(assert (not (le x3 java.lang.String)))
(check-sat)
(pop)
(push)
(assert (le x10 siena.Notifiable))
(check-sat)
(pop)
(push)
(assert (not (le x10 siena.Notifiable)))
(check-sat)
(pop)
(pop)
(push)
(assert (not (le x13 siena.Event)))
(check-sat)
(pop)
(push)
(assert (le x12 siena.Poset))
(check-sat)
(pop)
(push)
(assert (not (le x12 siena.Poset)))
(check-sat)
(pop)
(push)
(assert (le x1 java.lang.String))
(check-sat)
(push)
(assert (le x0 siena.HierarchicalDispatcher))
(check-sat)
(pop)
(push)
(assert (not (le x0 siena.HierarchicalDispatcher)))
(check-sat)
(pop)
(pop)
(push)
(assert (not (le x1 java.lang.String)))
(check-sat)
(pop)
(pop)
(push)
(assert (not (le x15 siena.AttributeConstraint)))
(check-sat)
(pop)
(push)
(assert (le x3 siena.Notifiable))
(check-sat)
(push)
(assert (le x12 siena.HierarchicalDispatcher))
(check-sat)
(pop)
(push)
(assert (not (le x12 siena.HierarchicalDispatcher)))
(check-sat)
(pop)
(pop)
(push)
(assert (not (le x3 siena.Notifiable)))
(check-sat)
(pop)
(push)
(assert (le x0 java.io.PrintStream))
(check-sat)
(pop)
(push)
(assert (not (le x0 java.io.PrintStream)))
(check-sat)
(pop)
(pop)
(push)
(assert (le x5 siena.AttributeValue))
(check-sat)
(push)
(assert (le x2 java.lang.String))
(check-sat)
(push)
(assert (le x11 java.lang.StringBuilder))
(check-sat)
(pop)
(push)
(assert (not (le x11 java.lang.StringBuilder)))
(check-sat)
(pop)
(pop)
(push)
(assert (not (le x2 java.lang.String)))
(check-sat)
(push)
(assert (le x1 java.lang.String))
(check-sat)
(pop)
(push)
(assert (not (le x1 java.lang.String)))
(check-sat)
(push)
(assert (le x1 java.lang.String))
(check-sat)
(pop)
(push)
(assert (not (le x1 java.lang.String)))
(check-sat)
(pop)
(push)
(assert (le x13 siena.ByteBuf))
(check-sat)
(pop)
(push)
(assert (not (le x13 siena.ByteBuf)))
(check-sat)
(pop)
(pop)
(push)
(assert (le x15 siena.AttributeConstraint))
(check-sat)
(pop)
(push)
(assert (not (le x15 siena.AttributeConstraint)))
(check-sat)
(pop)
(pop)
(push)
(assert (le x11 java.lang.String))
(check-sat)
(pop)
(push)
(assert (not (le x11 java.lang.String)))
(check-sat)
(pop)
(push)
(assert (le x7 siena.Notifiable))
(check-sat)
(pop)
(push)
(assert (not (le x7 siena.Notifiable)))
(check-sat)
(pop)
(pop)
(push)
(assert (not (le x5 siena.AttributeValue)))
(check-sat)
(push)
(assert (le x11 siena.AttributeConstraint))
(check-sat)
(push)
(assert (le x1 java.io.PrintStream))
(check-sat)
(push)
(assert (le x6 siena.AttributeConstraint))
(check-sat)
(pop)
(push)
(assert (not (le x6 siena.AttributeConstraint)))
(check-sat)
(pop)
(push)
(assert (le x13 java.lang.String))
(check-sat)
(pop)
(push)
(assert (not (le x13 java.lang.String)))
(check-sat)
(pop)
(pop)
(push)
(assert (not (le x1 java.io.PrintStream)))
(check-sat)
(pop)
(push)
(assert (le x2 siena.Filter))
(check-sat)
(pop)
(push)
(assert (not (le x2 siena.Filter)))
(check-sat)
(pop)
(pop)
(push)
(assert (not (le x11 siena.AttributeConstraint)))
(check-sat)
(pop)
(pop)
(push)
(assert (le x14 siena.ByteBuf))
(check-sat)
(pop)
(push)
(assert (not (le x14 siena.ByteBuf)))
(check-sat)
(pop)
(push)
(assert (le x13 siena.Event))
(check-sat)
(pop)
(push)
(assert (not (le x13 siena.Event)))
(check-sat)
(push)
(assert (le x1 java.lang.String))
(check-sat)
(push)
(assert (le x4 java.io.PrintStream))
(check-sat)
(pop)
(push)
(assert (not (le x4 java.io.PrintStream)))
(check-sat)
(pop)
(push)
(assert (le x14 siena.HierarchicalDispatcher))
(check-sat)
(pop)
(push)
(assert (not (le x14 siena.HierarchicalDispatcher)))
(check-sat)
(pop)
(push)
(assert (le x4 java.lang.StringBuilder))
(check-sat)
(pop)
(push)
(assert (not (le x4 java.lang.StringBuilder)))
(check-sat)
(pop)
(push)
(assert (le x8 siena.AttributeValue))
(check-sat)
(pop)
(push)
(assert (not (le x8 siena.AttributeValue)))
(check-sat)
(pop)
(pop)
(push)
(assert (not (le x1 java.lang.String)))
(check-sat)
(pop)
(push)
(assert (le x11 siena.HierarchicalDispatcher))
(check-sat)
(push)
(assert (le x4 siena.AttributeValue))
(check-sat)
(pop)
(push)
(assert (not (le x4 siena.AttributeValue)))
(check-sat)
(pop)
(pop)
(push)
(assert (not (le x11 siena.HierarchicalDispatcher)))
(check-sat)
(pop)
(push)
(assert (le x1 siena.Filter))
(check-sat)
(push)
(assert (le x5 siena.HierarchicalDispatcher))
(check-sat)
(pop)
(push)
(assert (not (le x5 siena.HierarchicalDispatcher)))
(check-sat)
(pop)
(push)
(assert (le x13 siena.Event))
(check-sat)
(pop)
(push)
(assert (not (le x13 siena.Event)))
(check-sat)
(pop)
(push)
(assert (le x11 siena.AttributeValue))
(check-sat)
(pop)
(push)
(assert (not (le x11 siena.AttributeValue)))
(check-sat)
(pop)
(pop)
(push)
(assert (not (le x1 siena.Filter)))
(check-sat)
(pop)
(pop)
(push)
(assert (le x5 siena.Filter))
(check-sat)
(push)
(assert (le x10 java.lang.String))
(check-sat)
(pop)
(push)
(assert (not (le x10 java.lang.String)))
(check-sat)
(pop)
(pop)
(push)
(assert (not (le x5 siena.Filter)))
(check-sat)
(pop)
(push)
(assert (le x9 java.lang.String))
(check-sat)
(pop)
(push)
(assert (not (le x9 java.lang.String)))
(check-sat)
(push)
(assert (le x14 java.io.PrintStream))
(check-sat)
(pop)
(push)
(assert (not (le x14 java.io.PrintStream)))
(check-sat)
(pop)
(push)
(assert (le x10 java.lang.String))
(check-sat)
(push)
(assert (le x14 java.lang.String))
(check-sat)
(push)
(assert (le x4 siena.AttributeValue))
(check-sat)
(pop)
(push)
(assert (not (le x4 siena.AttributeValue)))
(check-sat)
(pop)
(pop)
(push)
(assert (not (le x14 java.lang.String)))
(check-sat)
(pop)
(pop)
(push)
(assert (not (le x10 java.lang.String)))
(check-sat)
(pop)
(push)
(assert (le x8 siena.AttributeValue))
(check-sat)
(push)
(assert (le x5 siena.ByteBuf))
(check-sat)
(pop)
(push)
(assert (not (le x5 siena.ByteBuf)))
(check-sat)
(pop)
(pop)
(push)
(assert (not (le x8 siena.AttributeValue)))
(check-sat)
(pop)
(pop)
(push)
(assert (le x3 java.lang.String))
(check-sat)
(push)
(assert (le x2 siena.Tokenizer))
(check-sat)
(pop)
(push)
(assert (not (le x2 siena.Tokenizer)))
(check-sat)
(pop)
(push)
(assert (le x5 siena.Tokenizer))
(check-sat)
(pop)
(push)
(assert (not (le x5 siena.Tokenizer)))
(check-sat)
(pop)
(push)
(assert (le x14 siena.AttributeConstraint))
(check-sat)
(pop)
(push)
(assert (not (le x14 siena.AttributeConstraint)))
(check-sat)
(push)
(assert (le x4 java.lang.String))
(check-sat)
(pop)
(push)
(assert (not (le x4 java.lang.String)))
(check-sat)
(pop)
(push)
(assert (le x15 siena.AttributeConstraint))
(check-sat)
(pop)
(push)
(assert (not (le x15 siena.AttributeConstraint)))
(check-sat)
(pop)
(push)
(assert (le x6 java.io.BufferedReader))
(check-sat)
(pop)
(push)
(assert (not (le x6 java.io.BufferedReader)))
(check-sat)
(push)
(assert (le x8 java.lang.String))
(check-sat)
(pop)
(push)
(assert (not (le x8 java.lang.String)))
(check-sat)
(pop)
(pop)
(pop)
(push)
(assert (le x0 java.io.PrintStream))
(check-sat)
(push)
(assert (le x12 java.lang.String))
(check-sat)
(pop)
(push)
(assert (not (le x12 java.lang.String)))
(check-sat)
(pop)
(pop)
(push)
(assert (not (le x0 java.io.PrintStream)))
(check-sat)
(pop)
(push)
(assert (le x15 siena.AttributeConstraint))
(check-sat)
(pop)
(push)
(assert (not (le x15 siena.AttributeConstraint)))
(check-sat)
(pop)
(push)
(assert (le x0 siena.AttributeConstraint))
(check-sat)
(pop)
(push)
(assert (not (le x0 siena.AttributeConstraint)))
(check-sat)
(pop)
(pop)
(push)
(assert (not (le x3 java.lang.String)))
(check-sat)
(push)
(assert (le x11 siena.Tokenizer))
(check-sat)
(pop)
(push)
(assert (not (le x11 siena.Tokenizer)))
(check-sat)
(pop)
(push)
(assert (le x14 siena.ByteBuf))
(check-sat)
(pop)
(push)
(assert (not (le x14 siena.ByteBuf)))
(check-sat)
(pop)
(pop)
(push)
(assert (le x9 siena.AttributeValue))
(check-sat)
(pop)
(push)
(assert (not (le x9 siena.AttributeValue)))
(check-sat)
(push)
(assert (le x11 java.lang.String))
(check-sat)
(pop)
(push)
(assert (not (le x11 java.lang.String)))
(check-sat)
(pop)
(pop)
(push)
(assert (le x11 java.lang.String))
(check-sat)
(push)
(assert (le x13 siena.ByteBuf))
(check-sat)
(push)
(assert (le x11 java.lang.String))
(check-sat)
(pop)
(push)
(assert (not (le x11 java.lang.String)))
(check-sat)
(pop)
(pop)
(push)
(assert (not (le x13 siena.ByteBuf)))
(check-sat)
(pop)
(pop)
(push)
(assert (not (le x11 java.lang.String)))
(check-sat)
(push)
(assert (le x12 java.lang.String))
(check-sat)
(pop)
(push)
(assert (not (le x12 java.lang.String)))
(check-sat)
(pop)
(push)
(assert (le x6 java.lang.StringBuilder))
(check-sat)
(push)
(assert (le x11 java.lang.String))
(check-sat)
(pop)
(push)
(assert (not (le x11 java.lang.String)))
(check-sat)
(pop)
(push)
(assert (le x0 siena.AttributeConstraint))
(check-sat)
(pop)
(push)
(assert (not (le x0 siena.AttributeConstraint)))
(check-sat)
(pop)
(pop)
(push)
(assert (not (le x6 java.lang.StringBuilder)))
(check-sat)
(push)
(assert (le x8 java.net.InetAddress))
(check-sat)
(pop)
(push)
(assert (not (le x8 java.net.InetAddress)))
(check-sat)
(pop)
(pop)
(pop)
(push)
(assert (le x5 java.lang.String))
(check-sat)
(push)
(assert (le x1 java.io.BufferedReader))
(check-sat)
(pop)
(push)
(assert (not (le x1 java.io.BufferedReader)))
(check-sat)
(pop)
(pop)
(push)
(assert (not (le x5 java.lang.String)))
(check-sat)
(push)
(assert (le x15 siena.AttributeConstraint))
(check-sat)
(pop)
(push)
(assert (not (le x15 siena.AttributeConstraint)))
(check-sat)
(pop)
(push)
(assert (le x15 siena.AttributeConstraint))
(check-sat)
(pop)
(push)
(assert (not (le x15 siena.AttributeConstraint)))
(check-sat)
(pop)
(push)
(assert (le x6 java.lang.String))
(check-sat)
(push)
(assert (le x11 siena.Filter))
(check-sat)
(pop)
(push)
(assert (not (le x11 siena.Filter)))
(check-sat)
(pop)
(pop)
(push)
(assert (not (le x6 java.lang.String)))
(check-sat)
(pop)
(pop)
(push)
(assert (le x7 java.lang.String))
(check-sat)
(push)
(assert (le x8 siena.Tokenizer))
(check-sat)
(pop)
(push)
(assert (not (le x8 siena.Tokenizer)))
(check-sat)
(pop)
(pop)
(push)
(assert (not (le x7 java.lang.String)))
(check-sat)
(push)
(assert (le x8 siena.HierarchicalDispatcher))
(check-sat)
(pop)
(push)
(assert (not (le x8 siena.HierarchicalDispatcher)))
(check-sat)
(pop)
(push)
(assert (le x9 java.util.Set))
(check-sat)
(push)
(assert (le x1 siena.Filter))
(check-sat)
(pop)
(push)
(assert (not (le x1 siena.Filter)))
(check-sat)
(pop)
(push)
(assert (le x6 siena.AttributeValue))
(check-sat)
(pop)
(push)
(assert (not (le x6 siena.AttributeValue)))
(check-sat)
(pop)
(pop)
(push)
(assert (not (le x9 java.util.Set)))
(check-sat)
(pop)
(pop)
(pop)
(push)
(assert (not (le x15 siena.AttributeConstraint)))
(check-sat)
(push)
(assert (le x14 java.lang.String))
(check-sat)
(push)
(assert (le x5 java.lang.StringBuilder))
(check-sat)
(pop)
(push)
(assert (not (le x5 java.lang.StringBuilder)))
(check-sat)
(pop)
(push)
(assert (le x14 java.lang.String))
(check-sat)
(push)
(assert (le x5 java.lang.StringBuilder))
(check-sat)
(pop)
(push)
(assert (not (le x5 java.lang.StringBuilder)))
(check-sat)
(pop)
(pop)
(push)
(assert (not (le x14 java.lang.String)))
(check-sat)
(pop)
(push)
(assert (le x3 siena.AttributeValue))
(check-sat)
(push)
(assert (le x7 java.lang.String))
(check-sat)
(push)
(assert (le x10 java.lang.String))
(check-sat)
(pop)
(push)
(assert (not (le x10 java.lang.String)))
(check-sat)
(pop)
(pop)
(push)
(assert (not (le x7 java.lang.String)))
(check-sat)
(pop)
(push)
(assert (le x7 siena.ByteBuf))
(check-sat)
(push)
(assert (le x2 siena.ByteBuf))
(check-sat)
(pop)
(push)
(assert (not (le x2 siena.ByteBuf)))
(check-sat)
(pop)
(pop)
(push)
(assert (not (le x7 siena.ByteBuf)))
(check-sat)
(pop)
(pop)
(push)
(assert (not (le x3 siena.AttributeValue)))
(check-sat)
(push)
(assert (le x3 siena.AttributeValue))
(check-sat)
(pop)
(push)
(assert (not (le x3 siena.AttributeValue)))
(check-sat)
(pop)
(pop)
(pop)
(push)
(assert (not (le x14 java.lang.String)))
(check-sat)
(pop)
(push)
(assert (le x15 siena.AttributeConstraint))
(check-sat)
(pop)
(push)
(assert (not (le x15 siena.AttributeConstraint)))
(check-sat)
(pop)
(push)
(assert (le x11 java.util.Set))
(check-sat)
(push)
(assert (le x8 siena.Tokenizer))
(check-sat)
(pop)
(push)
(assert (not (le x8 siena.Tokenizer)))
(check-sat)
(pop)
(push)
(assert (le x2 java.lang.String))
(check-sat)
(pop)
(push)
(assert (not (le x2 java.lang.String)))
(check-sat)
(pop)
(push)
(assert (le x10 java.lang.StringBuilder))
(check-sat)
(pop)
(push)
(assert (not (le x10 java.lang.StringBuilder)))
(check-sat)
(push)
(assert (le x15 siena.AttributeConstraint))
(check-sat)
(pop)
(push)
(assert (not (le x15 siena.AttributeConstraint)))
(check-sat)
(pop)
(push)
(assert (le x6 java.lang.String))
(check-sat)
(pop)
(push)
(assert (not (le x6 java.lang.String)))
(check-sat)
(pop)
(pop)
(pop)
(push)
(assert (not (le x11 java.util.Set)))
(check-sat)
(pop)
(pop)
